50
    11    13    10    77    95    54     6    10    36    73    11    36    16    10    78    28    86    98    77     2    59    57    93    11    17     1    28    51     6    32    97    59    38    45    34    10    89    25    85    22     4    45    14    53    91    72   100     2    23    63
     9     5     4     1     8     4     9     8     4     6     7     3     5    10     6     7     9     5     9     2     4     5     7     3     7     2     2     7     5     5     2     2     5     1    10     9     3     2     3     2     5     9     5     7     6     1    10    10     4     2
  1611  1436  1347  1488  1649  1333  1836  1649  1607  1771  1706  1780  1737  1559  1395  1953  1498  1512  1693  1660  1507  1753  1607  2043  1642  1996  1834  1680  2134  1417  1775  1386  1668  1528  2143  1722  1918  1741  1981  1782  1343  1390  2125  1856  1446  1310  1365  1356  1427  1555
